nNurses = 110;
nHours = 37;
minHours = 9;
maxHours = 9;
maxConsec = 9;
maxPresence = 11;
demand = [16, 13, 17, 15, 14, 12, 10, 7, 9, 12, 11, 13, 15, 12, 8, 6, 9, 9, 10, 8, 6, 8, 7, 12, 12, 10, 15, 10, 8, 13, 10, 10, 12, 15, 19, 16, 15];
